60

 0   1   2   3   4   5   6   7   8   9   1   2   3   4   5   6   7   8   9  10   2   3   4   5   6   7   8   9  10  11   3   4   5   6   7   8   9  10  11  12   4   5   6   7   8   9  10  11  12  13   5   6   7   8   9  10  11  12  13  14  
 1   0   1   2   3   4   5   6   7   8   2   1   2   3   4   5   6   7   8   9   3   2   3   4   5   6   7   8   9  10   4   3   4   5   6   7   8   9  10  11   5   4   5   6   7   8   9  10  11  12   6   5   6   7   8   9  10  11  12  13  
 2   1   0   1   2   3   4   5   6   7   3   2   1   2   3   4   5   6   7   8   4   3   2   3   4   5   6   7   8   9   5   4   3   4   5   6   7   8   9  10   6   5   4   5   6   7   8   9  10  11   7   6   5   6   7   8   9  10  11  12  
 3   2   1   0   1   2   3   4   5   6   4   3   2   1   2   3   4   5   6   7   5   4   3   2   3   4   5   6   7   8   6   5   4   3   4   5   6   7   8   9   7   6   5   4   5   6   7   8   9  10   8   7   6   5   6   7   8   9  10  11  
 4   3   2   1   0   1   2   3   4   5   5   4   3   2   1   2   3   4   5   6   6   5   4   3   2   3   4   5   6   7   7   6   5   4   3   4   5   6   7   8   8   7   6   5   4   5   6   7   8   9   9   8   7   6   5   6   7   8   9  10  
 5   4   3   2   1   0   1   2   3   4   6   5   4   3   2   1   2   3   4   5   7   6   5   4   3   2   3   4   5   6   8   7   6   5   4   3   4   5   6   7   9   8   7   6   5   4   5   6   7   8  10   9   8   7   6   5   6   7   8   9  
 6   5   4   3   2   1   0   1   2   3   7   6   5   4   3   2   1   2   3   4   8   7   6   5   4   3   2   3   4   5   9   8   7   6   5   4   3   4   5   6  10   9   8   7   6   5   4   5   6   7  11  10   9   8   7   6   5   6   7   8  
 7   6   5   4   3   2   1   0   1   2   8   7   6   5   4   3   2   1   2   3   9   8   7   6   5   4   3   2   3   4  10   9   8   7   6   5   4   3   4   5  11  10   9   8   7   6   5   4   5   6  12  11  10   9   8   7   6   5   6   7  
 8   7   6   5   4   3   2   1   0   1   9   8   7   6   5   4   3   2   1   2  10   9   8   7   6   5   4   3   2   3  11  10   9   8   7   6   5   4   3   4  12  11  10   9   8   7   6   5   4   5  13  12  11  10   9   8   7   6   5   6  
 9   8   7   6   5   4   3   2   1   0  10   9   8   7   6   5   4   3   2   1  11  10   9   8   7   6   5   4   3   2  12  11  10   9   8   7   6   5   4   3  13  12  11  10   9   8   7   6   5   4  14  13  12  11  10   9   8   7   6   5  
 1   2   3   4   5   6   7   8   9  10   0   1   2   3   4   5   6   7   8   9   1   2   3   4   5   6   7   8   9  10   2   3   4   5   6   7   8   9  10  11   3   4   5   6   7   8   9  10  11  12   4   5   6   7   8   9  10  11  12  13  
 2   1   2   3   4   5   6   7   8   9   1   0   1   2   3   4   5   6   7   8   2   1   2   3   4   5   6   7   8   9   3   2   3   4   5   6   7   8   9  10   4   3   4   5   6   7   8   9  10  11   5   4   5   6   7   8   9  10  11  12  
 3   2   1   2   3   4   5   6   7   8   2   1   0   1   2   3   4   5   6   7   3   2   1   2   3   4   5   6   7   8   4   3   2   3   4   5   6   7   8   9   5   4   3   4   5   6   7   8   9  10   6   5   4   5   6   7   8   9  10  11  
 4   3   2   1   2   3   4   5   6   7   3   2   1   0   1   2   3   4   5   6   4   3   2   1   2   3   4   5   6   7   5   4   3   2   3   4   5   6   7   8   6   5   4   3   4   5   6   7   8   9   7   6   5   4   5   6   7   8   9  10  
 5   4   3   2   1   2   3   4   5   6   4   3   2   1   0   1   2   3   4   5   5   4   3   2   1   2   3   4   5   6   6   5   4   3   2   3   4   5   6   7   7   6   5   4   3   4   5   6   7   8   8   7   6   5   4   5   6   7   8   9  
 6   5   4   3   2   1   2   3   4   5   5   4   3   2   1   0   1   2   3   4   6   5   4   3   2   1   2   3   4   5   7   6   5   4   3   2   3   4   5   6   8   7   6   5   4   3   4   5   6   7   9   8   7   6   5   4   5   6   7   8  
 7   6   5   4   3   2   1   2   3   4   6   5   4   3   2   1   0   1   2   3   7   6   5   4   3   2   1   2   3   4   8   7   6   5   4   3   2   3   4   5   9   8   7   6   5   4   3   4   5   6  10   9   8   7   6   5   4   5   6   7  
 8   7   6   5   4   3   2   1   2   3   7   6   5   4   3   2   1   0   1   2   8   7   6   5   4   3   2   1   2   3   9   8   7   6   5   4   3   2   3   4  10   9   8   7   6   5   4   3   4   5  11  10   9   8   7   6   5   4   5   6  
 9   8   7   6   5   4   3   2   1   2   8   7   6   5   4   3   2   1   0   1   9   8   7   6   5   4   3   2   1   2  10   9   8   7   6   5   4   3   2   3  11  10   9   8   7   6   5   4   3   4  12  11  10   9   8   7   6   5   4   5  
10   9   8   7   6   5   4   3   2   1   9   8   7   6   5   4   3   2   1   0  10   9   8   7   6   5   4   3   2   1  11  10   9   8   7   6   5   4   3   2  12  11  10   9   8   7   6   5   4   3  13  12  11  10   9   8   7   6   5   4  
 2   3   4   5   6   7   8   9  10  11   1   2   3   4   5   6   7   8   9  10   0   1   2   3   4   5   6   7   8   9   1   2   3   4   5   6   7   8   9  10   2   3   4   5   6   7   8   9  10  11   3   4   5   6   7   8   9  10  11  12  
 3   2   3   4   5   6   7   8   9  10   2   1   2   3   4   5   6   7   8   9   1   0   1   2   3   4   5   6   7   8   2   1   2   3   4   5   6   7   8   9   3   2   3   4   5   6   7   8   9  10   4   3   4   5   6   7   8   9  10  11  
 4   3   2   3   4   5   6   7   8   9   3   2   1   2   3   4   5   6   7   8   2   1   0   1   2   3   4   5   6   7   3   2   1   2   3   4   5   6   7   8   4   3   2   3   4   5   6   7   8   9   5   4   3   4   5   6   7   8   9  10  
 5   4   3   2   3   4   5   6   7   8   4   3   2   1   2   3   4   5   6   7   3   2   1   0   1   2   3   4   5   6   4   3   2   1   2   3   4   5   6   7   5   4   3   2   3   4   5   6   7   8   6   5   4   3   4   5   6   7   8   9  
 6   5   4   3   2   3   4   5   6   7   5   4   3   2   1   2   3   4   5   6   4   3   2   1   0   1   2   3   4   5   5   4   3   2   1   2   3   4   5   6   6   5   4   3   2   3   4   5   6   7   7   6   5   4   3   4   5   6   7   8  
 7   6   5   4   3   2   3   4   5   6   6   5   4   3   2   1   2   3   4   5   5   4   3   2   1   0   1   2   3   4   6   5   4   3   2   1   2   3   4   5   7   6   5   4   3   2   3   4   5   6   8   7   6   5   4   3   4   5   6   7  
 8   7   6   5   4   3   2   3   4   5   7   6   5   4   3   2   1   2   3   4   6   5   4   3   2   1   0   1   2   3   7   6   5   4   3   2   1   2   3   4   8   7   6   5   4   3   2   3   4   5   9   8   7   6   5   4   3   4   5   6  
 9   8   7   6   5   4   3   2   3   4   8   7   6   5   4   3   2   1   2   3   7   6   5   4   3   2   1   0   1   2   8   7   6   5   4   3   2   1   2   3   9   8   7   6   5   4   3   2   3   4  10   9   8   7   6   5   4   3   4   5  
10   9   8   7   6   5   4   3   2   3   9   8   7   6   5   4   3   2   1   2   8   7   6   5   4   3   2   1   0   1   9   8   7   6   5   4   3   2   1   2  10   9   8   7   6   5   4   3   2   3  11  10   9   8   7   6   5   4   3   4  
11  10   9   8   7   6   5   4   3   2  10   9   8   7   6   5   4   3   2   1   9   8   7   6   5   4   3   2   1   0  10   9   8   7   6   5   4   3   2   1  11  10   9   8   7   6   5   4   3   2  12  11  10   9   8   7   6   5   4   3  
 3   4   5   6   7   8   9  10  11  12   2   3   4   5   6   7   8   9  10  11   1   2   3   4   5   6   7   8   9  10   0   1   2   3   4   5   6   7   8   9   1   2   3   4   5   6   7   8   9  10   2   3   4   5   6   7   8   9  10  11  
 4   3   4   5   6   7   8   9  10  11   3   2   3   4   5   6   7   8   9  10   2   1   2   3   4   5   6   7   8   9   1   0   1   2   3   4   5   6   7   8   2   1   2   3   4   5   6   7   8   9   3   2   3   4   5   6   7   8   9  10  
 5   4   3   4   5   6   7   8   9  10   4   3   2   3   4   5   6   7   8   9   3   2   1   2   3   4   5   6   7   8   2   1   0   1   2   3   4   5   6   7   3   2   1   2   3   4   5   6   7   8   4   3   2   3   4   5   6   7   8   9  
 6   5   4   3   4   5   6   7   8   9   5   4   3   2   3   4   5   6   7   8   4   3   2   1   2   3   4   5   6   7   3   2   1   0   1   2   3   4   5   6   4   3   2   1   2   3   4   5   6   7   5   4   3   2   3   4   5   6   7   8  
 7   6   5   4   3   4   5   6   7   8   6   5   4   3   2   3   4   5   6   7   5   4   3   2   1   2   3   4   5   6   4   3   2   1   0   1   2   3   4   5   5   4   3   2   1   2   3   4   5   6   6   5   4   3   2   3   4   5   6   7  
 8   7   6   5   4   3   4   5   6   7   7   6   5   4   3   2   3   4   5   6   6   5   4   3   2   1   2   3   4   5   5   4   3   2   1   0   1   2   3   4   6   5   4   3   2   1   2   3   4   5   7   6   5   4   3   2   3   4   5   6  
 9   8   7   6   5   4   3   4   5   6   8   7   6   5   4   3   2   3   4   5   7   6   5   4   3   2   1   2   3   4   6   5   4   3   2   1   0   1   2   3   7   6   5   4   3   2   1   2   3   4   8   7   6   5   4   3   2   3   4   5  
10   9   8   7   6   5   4   3   4   5   9   8   7   6   5   4   3   2   3   4   8   7   6   5   4   3   2   1   2   3   7   6   5   4   3   2   1   0   1   2   8   7   6   5   4   3   2   1   2   3   9   8   7   6   5   4   3   2   3   4  
11  10   9   8   7   6   5   4   3   4  10   9   8   7   6   5   4   3   2   3   9   8   7   6   5   4   3   2   1   2   8   7   6   5   4   3   2   1   0   1   9   8   7   6   5   4   3   2   1   2  10   9   8   7   6   5   4   3   2   3  
12  11  10   9   8   7   6   5   4   3  11  10   9   8   7   6   5   4   3   2  10   9   8   7   6   5   4   3   2   1   9   8   7   6   5   4   3   2   1   0  10   9   8   7   6   5   4   3   2   1  11  10   9   8   7   6   5   4   3   2  
 4   5   6   7   8   9  10  11  12  13   3   4   5   6   7   8   9  10  11  12   2   3   4   5   6   7   8   9  10  11   1   2   3   4   5   6   7   8   9  10   0   1   2   3   4   5   6   7   8   9   1   2   3   4   5   6   7   8   9  10  
 5   4   5   6   7   8   9  10  11  12   4   3   4   5   6   7   8   9  10  11   3   2   3   4   5   6   7   8   9  10   2   1   2   3   4   5   6   7   8   9   1   0   1   2   3   4   5   6   7   8   2   1   2   3   4   5   6   7   8   9  
 6   5   4   5   6   7   8   9  10  11   5   4   3   4   5   6   7   8   9  10   4   3   2   3   4   5   6   7   8   9   3   2   1   2   3   4   5   6   7   8   2   1   0   1   2   3   4   5   6   7   3   2   1   2   3   4   5   6   7   8  
 7   6   5   4   5   6   7   8   9  10   6   5   4   3   4   5   6   7   8   9   5   4   3   2   3   4   5   6   7   8   4   3   2   1   2   3   4   5   6   7   3   2   1   0   1   2   3   4   5   6   4   3   2   1   2   3   4   5   6   7  
 8   7   6   5   4   5   6   7   8   9   7   6   5   4   3   4   5   6   7   8   6   5   4   3   2   3   4   5   6   7   5   4   3   2   1   2   3   4   5   6   4   3   2   1   0   1   2   3   4   5   5   4   3   2   1   2   3   4   5   6  
 9   8   7   6   5   4   5   6   7   8   8   7   6   5   4   3   4   5   6   7   7   6   5   4   3   2   3   4   5   6   6   5   4   3   2   1   2   3   4   5   5   4   3   2   1   0   1   2   3   4   6   5   4   3   2   1   2   3   4   5  
10   9   8   7   6   5   4   5   6   7   9   8   7   6   5   4   3   4   5   6   8   7   6   5   4   3   2   3   4   5   7   6   5   4   3   2   1   2   3   4   6   5   4   3   2   1   0   1   2   3   7   6   5   4   3   2   1   2   3   4  
11  10   9   8   7   6   5   4   5   6  10   9   8   7   6   5   4   3   4   5   9   8   7   6   5   4   3   2   3   4   8   7   6   5   4   3   2   1   2   3   7   6   5   4   3   2   1   0   1   2   8   7   6   5   4   3   2   1   2   3  
12  11  10   9   8   7   6   5   4   5  11  10   9   8   7   6   5   4   3   4  10   9   8   7   6   5   4   3   2   3   9   8   7   6   5   4   3   2   1   2   8   7   6   5   4   3   2   1   0   1   9   8   7   6   5   4   3   2   1   2  
13  12  11  10   9   8   7   6   5   4  12  11  10   9   8   7   6   5   4   3  11  10   9   8   7   6   5   4   3   2  10   9   8   7   6   5   4   3   2   1   9   8   7   6   5   4   3   2   1   0  10   9   8   7   6   5   4   3   2   1  
 5   6   7   8   9  10  11  12  13  14   4   5   6   7   8   9  10  11  12  13   3   4   5   6   7   8   9  10  11  12   2   3   4   5   6   7   8   9  10  11   1   2   3   4   5   6   7   8   9  10   0   1   2   3   4   5   6   7   8   9  
 6   5   6   7   8   9  10  11  12  13   5   4   5   6   7   8   9  10  11  12   4   3   4   5   6   7   8   9  10  11   3   2   3   4   5   6   7   8   9  10   2   1   2   3   4   5   6   7   8   9   1   0   1   2   3   4   5   6   7   8  
 7   6   5   6   7   8   9  10  11  12   6   5   4   5   6   7   8   9  10  11   5   4   3   4   5   6   7   8   9  10   4   3   2   3   4   5   6   7   8   9   3   2   1   2   3   4   5   6   7   8   2   1   0   1   2   3   4   5   6   7  
 8   7   6   5   6   7   8   9  10  11   7   6   5   4   5   6   7   8   9  10   6   5   4   3   4   5   6   7   8   9   5   4   3   2   3   4   5   6   7   8   4   3   2   1   2   3   4   5   6   7   3   2   1   0   1   2   3   4   5   6  
 9   8   7   6   5   6   7   8   9  10   8   7   6   5   4   5   6   7   8   9   7   6   5   4   3   4   5   6   7   8   6   5   4   3   2   3   4   5   6   7   5   4   3   2   1   2   3   4   5   6   4   3   2   1   0   1   2   3   4   5  
10   9   8   7   6   5   6   7   8   9   9   8   7   6   5   4   5   6   7   8   8   7   6   5   4   3   4   5   6   7   7   6   5   4   3   2   3   4   5   6   6   5   4   3   2   1   2   3   4   5   5   4   3   2   1   0   1   2   3   4  
11  10   9   8   7   6   5   6   7   8  10   9   8   7   6   5   4   5   6   7   9   8   7   6   5   4   3   4   5   6   8   7   6   5   4   3   2   3   4   5   7   6   5   4   3   2   1   2   3   4   6   5   4   3   2   1   0   1   2   3  
12  11  10   9   8   7   6   5   6   7  11  10   9   8   7   6   5   4   5   6  10   9   8   7   6   5   4   3   4   5   9   8   7   6   5   4   3   2   3   4   8   7   6   5   4   3   2   1   2   3   7   6   5   4   3   2   1   0   1   2  
13  12  11  10   9   8   7   6   5   6  12  11  10   9   8   7   6   5   4   5  11  10   9   8   7   6   5   4   3   4  10   9   8   7   6   5   4   3   2   3   9   8   7   6   5   4   3   2   1   2   8   7   6   5   4   3   2   1   0   1  
14  13  12  11  10   9   8   7   6   5  13  12  11  10   9   8   7   6   5   4  12  11  10   9   8   7   6   5   4   3  11  10   9   8   7   6   5   4   3   2  10   9   8   7   6   5   4   3   2   1   9   8   7   6   5   4   3   2   1   0  

 0   0   3   0   0   0  84   0   0   0   0   0   0   1   0  14   1   1   0   0   0   0   0   0  27   0   0  12  36   0   1   0   0   0  16   0   0   0   0   0   0  11   0   0   0   0   7   0   0   0   0   0   0   0   0   0   3   0  13  18  
 0   0   0   0   0   0   0   0   0  74   0  19   0   0   0   0   0   0  54   0  66   1   0   0   0  40   0   0   0   0   0   0   0   0   0   0   0  36   0   0  46   0   0  60   0  78   0   0   0   0  20   0  29   1   0   0   0   1   0   0  
19   0   0   1   0  78  48   0   0   0  77   0   0  45   0  10   5  39   0   1   0   0   0   6  12   0  54  61   1   5  68   1   0   6  94   0   0   0   0   1   0  90   0   0   0   0   6   0   0   0   0   1   0   0   0   0   1   0  49  29  
 0   0   1   0   0  13   0   0   0   0   0   0   0   0   0   1  45   0   0   0   0   0   0  11   0   0   0   0  28  15   0   1   0  15   0   0   0   0   0  10   0  88   0   0   0   0  41   2   0   0   0  52   0   0  93   0   1   0   0   0  
 0   0   0   0   0   0   0  20   0  22   0  33   6   0   0   0   0   0   0   0   0   0   2   0   0   0   0   0   0   0   0   0  10   0   0   0   0   0   0   0   0   0  96   4  70   0   0   0   0   1   0   0   0   0   0  82   0   0   0   0  
 0   0  44  13   0   0   0   0   0   0   0   0   0   0   0   4  49   0   0   0   0   0   0   4   0   0   0   0  75  39   0   1   0   1   0   0   0   0   0  25   0  75   0   0   0   0   8  10   0   0   0   1   0   0   1   0  57   0   0   0  
96   0  93   0   0   0   0   0  58   0   0   0   0  18  22   0   0   5   0   0   0   0   0   0   1   0   0  40   0   0  56   0   0   0   1   1   0   0   0   0   0   0   0   0   0   0   0   0   0   0   0   0   0   0   0   0   0   0   1  66  
 0   0   0   0  93   0   0   0   1  42  24   1   0   0   0   0   0   0   0   1  67  90   5   0   0  39   3   0   0   0   0   0   0   0   0   0   0   0  11   0  33   0   2   6  24   1   0   0   0  45  34   0   0  84   0   4   0   0   0   0  
 0   0   0   0   0   0  22   1   0   0  11   1   0   0  76   0   0   4   0   0  46   1   0   0   0  33  48   0   0   0   1   0   0   0   0  22   0   0   1   0  49   0   0   0   0   0   0   0   0  89   2   0   0  23   0   0   0  61   0   0  
 0   4   0   0   3   0   0   1   0   0   0  42   9   0   0   0   0   0  73   0  36  47  10   0   0  53   0   0   0   0   0   0   0   0   0   0   0  36  17   0  28   0   1  17  75   5   0   0   0   1   3   0   1  33   0   1   0   0   0   0  
 0   0   5   0   0   0   0   1  39   0   0  84   0   0   0   0   0   2   0  19   0   0  79   5  13   0   3   0   0  50   6   1   0   0   5   0   0   0   3   8   0   0  54   0   1   0   0   0   0   1   0   0   0   0   1   0   0   0   1   0  
 0   6   0   0   2   0   0   1  49   7  40   0   0   0   0   0   0   0   0   1   1   1   1   0   0   5  19   0   0   0   0   0   0   0   0   0   0  60  35   0   1   0  24  33  31  62   0   0   0  88   3   0   2   1   0   1   0   1   0   0  
 0   0   0   0  28   0   0   0   0   2   0   0   0   0   0   0   0   0   0   0   0   0   3   0   0   0   0   0   0   0   0   0   9   0   0   0   4   0   0   0   0   0  24   0  18   0   0   0  17   0   0   0   0   0   0  39   0   0   0   0  
22   0  66   0   0   0   1   0   0   0   0   0   0   0   0   5  11  63   0   0   0   0   0   0   1   0   0   1   3   0   1   0   0   0  63   0   0   0   0  12   0  84   0   0   0   0  10   0   0   0   0   0   0   0   0   0  26   0   9  13  
 0   0   0   0   0   0   9   0  26   0   0   0   0   0   0   0   0   0   0   0   4   0   0   0   0   0   0   0   0   0   1   0   0   0   0  67   0   0   0   0   0   0   0   0   0   0   0   0   0   0   0   0   0  74   0   0   0   1   0   0  
26   0  21  95   0   1   0   0   0   0   0   0   0   1   0   0  85   1   0   0   0   0   0   0  29   0   0  49   8   0   0   0   0   0   1   0   0   0   0  82   0   1   0   0   0   0   3   0   0   0   0   6   0   0   0   0  21   0   7  31  
47   0   1  10   0   1   0   0   0   0   0   0   0   1   0  19   0   0   0   0   0   0   0   0   0   0   0   0  80   0   0   0   0   0   0   0   0   0   0   0   0   1   0   0   0   0   1   0   0   0   0  25   0   0   0   0  41   0   0   0  
 3   0  30   0   0   0  84   0  31   0  38   0   0  17   0  17   0   0   0   1   0   0   0   1   1   0  26  37   0   0  13   0   0   0   9   0   0   0   1   2   0   0   0   0   0   0  56   0   0   0   0   0   0   0   0   0   0   0   5  45  
 0  12   0   0   0   0   0   0   0   1   0   0   0   0   0   0   0   0   0   0   0  26   0   0   0  82   0   0   0   0   0   0   0   0   0   0   0   1   0   0   1   0   0  30   0  58   0   0   0   0   0   0  12   0   0   0   0   0   0   0  
 0   0  95   0   0   0   0  88   0   0   9   9   0   0   0   0   0   1   0   0   0   0   1  27  84   0  14   0   0   1   0  23   0   0  13   0   0   0   1  16   0   0   2   0  78   0   0  36   2   1   0   0   0   0  85   2   0   0  34   0  
 0   3   0   0   0   0   0   2  46   1   0  18   0   0   7   0   0   0   0   0   0   4   0   0   0   1   1   0   0   0   1   0   0   0   0  16   0   0  64   0   1   0   0   0  26   0   0   0   0  27  96   0  81  64   0   0   0   1   0   0  
 0   6   0   0   0   0   0   9  36  93   0  89   0   0   0   0   0   0   4   0  71   0   0   0   0  78   0   0   0   0   0   0   0   0   0   0   0   6   0   0   4   0   0  55   0  34   0   0   0   1  88   0   1   7   0   0   0  10   0   0  
 0   0   0   0  20   0   0   5   0   1   1  29   1   0   0   0   0   0   0  28   0   0   0  19   0   0  17   0   0   0   0   0  91   0   0   0   0   0  39   0   0   0  98  13  15   0   0   0   7   2  11   0   0   0  55  37   0   0   0   0  
 0   0  69  68   0   1   0   0   0   0  21   0   0   0   0   0   0   1   0  95   0   0  54   0  82   0  52   0  43  57   0  92   0   1  48   0   0   0  35   5   0   0   0   0   0   0   0  12   5   0   0   8   0   0   1   0   0   0  96   0  
25   0  41   0   0   0   1   0   0   0   4   0   0  43   0  19   0   1   0  60   0   0   0   1   0   0  15   1  58   0  73   0   0   0  65   0   0   0  61   1   0   0   0   0   0   0  35   0   0   0   0   0   0   0   0   0   0   0  13  11  
 0  46   0   0   0   0   0  10  40   4   0   3   0   0   0   0   0   0   1   0   1   1   0   0   0   0   0   0   0   0   0   0   0   0   0   0   0   1  20   0   1   0   0  87   1  26   0   0   0  28   1   0   2  84   0   0   0  58   0   0  
 0   0  44   0   0   0   0  39  15   0   2  72   0   0   0   0   0  66   0  53  65   0   1   1  36   0   0   0   0  57   8   0   0   0   1   0   0   0  77   0   0   0   1   0  16   0   0   0   0   1   3   0   0  20  63   5   0   0   1   0  
92   0   1   0   0   0   1   0   0   0   0   0   0  32   0  10   0  95   0   0   0   0   0   0   1   0   0   0   0   0   2   0   0   0   4   0   0   0   0   0   0   0   0   0   0   0  17   0   0   0   0   0   0   0   0   0   0   0   8   3  
 2   0   5  14   0  44   0   0   0   0   0   0   0  48   0  60  21   0   0   0   0   0   0  81  71   0   0   0   0  22   0   3   0  29   0   0   0   0   0   7   0   1   0   0   0   0  43   0   0   0   0  82   0   0   0   0  20   0   0   0  
 0   0  88  92   0  89   0   0   0   0   1   0   0   0   0   0   0   0   0  96   0   0   0  49   0   0  11   0   1   0   0   1   0  38   0   0  57   0   0  70   0   0   0   0   0   0   0  97   1   0   0  37   0   0  10   0   0   0   2   0  
 9   0  65   0   0   0   1   0  22   0   8   0   0   8  44   0   0  24   0   0  82   0   0   0   5   0  19   3   0   0   0   0   0   0  36  72   0   0  61   0   0   0   0   0   0   0   0   0   0   0   0   0   0   3   0   0   0   0  55  95  
 0   0  72   7   0   9   0   0   0   0   1   0   0   0   0   0   0   0   0   1   0   0   0   4   0   0   0   0  10   3   0   0   0  21   0   0   5   0   0  25   0   0   0   0   0   0   0   1  13   0   0  28   0   0  80   0   0   0   0   0  
 0   0   0   0   5   0   0   0   0   0   0   0  15   0   0   0   0   0   0   0   0   0   1   0   0   0   0   0   0   0   0   0   0   0   0   0   7   0   0   0   0   0   4   0   0   0   0   0  10   0   0   0   0   0  18  14   0   0   0   0  
 0   0  45   4   0   1   0   0   0   0   0   0   0   0   0   0   0   0   0   0   0   0   0  63   0   0   0   0  12  33   0   1   0   0   0   0  12   0   0  73   0   0   0   0   0   0   0   4  89   0   0   1   0   0  14   0  54   0   0   0  
 2   0   1   0   0   0   3   0   0   0   4   0   0  76   0  66   0  70   0   1   0   0   0  10  64   0   7   1   0   0   1   0   0   0   0   0   0   0  24  21   0   0   0   0   0   0   3   0   0   0   0   0   0   0   0   0   0   0   3  86  
 0   0   0   0   0   0  17   0  44   0   0   0   0   0   1   0   0   0   0   0   8   0   0   0   0   0   0   0   0   0   1   0   0   0   0   0   0   0   0   0   1   0   0   0   0   0   0   0   0   0   8   0   0  57   0   0   0   1   0   0  
 0   0   0   0   0   0   0   0   0   0   0   0   1   0   0   0   0   0   0   0   0   0   0   0   0   0   0   0   0  42   0   2  45   1   0   0   0   0   0   0   0   0   0   0   0   0   0  26   2   0   0   0   0   0  18   0   0   0   0   0  
 0  57   0   0   0   0   0   0   0  93   0  81   0   0   0   0   0   0  18   0   0  27   0   0   0  62   0   0   0   0   0   0   0   0   0   0   0   0   0   0  32   0   0   1   0  38   0   0   0   0  59   0  61   0   0   0   0   0   0   0  
 0   0   0   0   0   0   0   6  66   2  19  46   0   0   0   0   0   1   0  20  41   0  79  89  75   1   1   0   0   0  77   0   0   0   1   0   0   0   0   0  14   0   7   0  13   0   0   0   0  89  25   0   0  55   0   0   0   0   5   0  
 0   0   2  61   0  59   0   0   0   0  12   0   0   1   0   1   0  56   0  28   0   0   0   1  20   0   0   0  77   4   0  16   0   1   1   0   0   0   0   0   0   0   0   0   0   0  19  17  76   0   0  18   0   0  19   0  72   0   1   0  
 0   7   0   0   0   0   0  11   2   5   0  86   0   0   0   0   0   0   3   0  46   3   0   0   0  45   0   0   0   0   0   0   0   0   0   1   0  21   1   0   0   0   0  93   1   1   0   0   0   1   1   0  32  19   0   0   0  47   0   0  
89   0  86  81   0   5   0   0   0   0   0   0   0  20   0  22  70   0   0   0   0   0   0   0   0   0   0   0  52   0   0   0   0   0   0   0   0   0   0   0   0   0   0   0   0   0  84   0   0   0   0   9   0   0   0   0  33   0   0   0  
 0   0   0   0  33   0   0  79   0   7  20   1   1   0   0   0   0   0   0  54   0   0  12   0   0   0   8   0   0   0   0   0  20   0   0   0   0   0  57   0   0   0   0  44  78   0   0   0   0  22  28   0   0   0  47  66   0   0   0   0  
 0   5   0   0   1   0   0   1   0   1   0  97   0   0   0   0   0   0  42   0   0  86   1   0   0  62   0   0   0   0   0   0   0   0   0   0   0  42   0   0   8   0   1   0   4  52   0   0   0   2  53   0   1   0   0  70   0   0   0   0  
 0   0   0   0  14   0   0  15   0   1  21  57   8   0   0   0   0   0   0  17  66   0   1   0   0  11  66   0   0   0   0   0   0   0   0   0   0   0  83   0   1   0   1  16   0   0   0   0   0   2  38   0   0  48   4  15   0   0   0   0  
 0   5   0   0   0   0   0  50   0  76   0  27   0   0   0   0   0   0   1   0   0   1   0   0   0  62   0   0   0   0   0   0   0   0   0   0   0  20   0   0   1   0   0  75   0   0   0   0   0   0  90   0   3   0   0   0   0   0   0   0  
 1   0  54   1   0  12   0   0   0   0   0   0   0   6   0  31  50   1   0   0   0   0   0   0   2   0   0  91  11   0   0   0   0   0  20   0   0   0   0   7   0   1   0   0   0   0   0   0   0   0   0   1   0   0   0   0   1   0   1   1  
 0   0   0  75   0   4   0   0   0   0   0   0   0   0   0   0   0   0   0   1   0   0   0   3   0   0   0   0   0  14   0   1   0   1   0   0   8   0   0  12   0   0   0   0   0   0   0   0   7   0   0   9   0   0   1   0   0   0   0   0  
 0   0   0   0   0   0   0   0   0   0   0   0   1   0   0   0   0   0   0   1   0   0  47   1   0   0   0   0   0  36   0  46  45  37   0   0   1   0   0  98   0   0   0   0   0   0   0  83   0   0   0   0   0   0   1  38   0   0   0   0  
 0   0   0   0   3   0   0   3  13   9  60   1   0   0   0   0   0   0   0  11   1  48   6   0   0  18   5   0   0   0   0   0   0   0   0   0   0   0   1   0   1   0   5   7   1   0   0   0   0   0   8   0   0  30   0   1   0   1   0   0  
 0   2   0   0   0   0   0  18  58  15   0  81   0   0   0   0   0   0   0   0  69  51   1   0   0   1  39   0   0   0   0   0   0   0   0   1   0  57   7   0  80   0  71   8  46  22   0   0   0  23   0   0  79  41   0   0   0  21   0   0  
 0   0  18  41   0  76   0   0   0   0   0   0   0   0   0  13  88   0   0   0   0   0   0   1   0   0   0   0  99  24   0  37   0   1   0   0   0   0   0  82   0   1   0   0   0   0  38  90   0   0   0   0   0   0  22   0  53   0   0   0  
 0  28   0   0   0   0   0   0   0   4   0  78   0   0   0   0   0   0   1   0  16   5   0   0   0  53   0   0   0   0   0   0   0   0   0   0   0  28   0   0  98   0   0   3   0   1   0   0   0   0   1   0   0   1   0   0   0   1   0   0  
 0   1   0   0   0   0   0   7  31  32   0  27   0   0  63   0   0   0   0   0  43   1   0   0   0  73  10   0   0   0  85   0   0   0   0  36   0   0   2   0  43   0   0   0   1   0   0   0   0  88   3   0   1   0   0   0   0   1   0   0  
 0   0   0  38   0   1   0   0   0   0  11   0   0   0   0   0   0   0   0  38   0   0  24   1   0   0  36   0   0  33   0  69  93  49   0   0  72   0   0  82   0   0  21   0  28   0   0  89  65   0   0   1   0   0   0   1   0   0   0   0  
 0   0   0   0  68   0   0  25   0   1   0   1  82   0   0   0   0   0   0   4   0   0   1   0   0   0   1   0   0   0   0   0   3   0   0   0   0   0   0   0   0   0   1  64  50   0   0   0  62  37   0   0   0   0  68   0   0   0   0   0  
81   0   1  73   0   1   0   0   0   0   0   0   0   5   0  96  57   0   0   0   0   0   0   0   0   0   0   0   5   0   0   0   0  12   0   0   0   0   0  14   0  64   0   0   0   0  16   0   0   0   0  60   0   0   0   0   0   0   0   0  
 0  25   0   0   0   0   0   0  46   0   0   1   0   0   1   0   0   0   0   0   3  27   0   0   0   1   0   0   0   0   0   0   0   0   0  21   0   0   0   0   7   0   0   0   0   0   0   0   0  25   1   0   1  71   0   0   0   0   0   0  
 1   0   9   0   0   0   1   0   0   0   3   0   0  18   0  32   0   9   0   2   0   0   0  11  52   0  46  79   0  41  40   0   0   0   3   0   0   0   3  13   0   0   0   0   0   0  55   0   0   0   0   0   0   0   0   0   0   0   0  23  
26   0  79   0   0   0  20   0   0   0   0   0   0   9   0  29   0  68   0   0   0   0   0   0  36   0   0   6   0   0   1   0   0   0  78   0   0   0   0   0   0   0   0   0   0   0   1   0   0   0   0   0   0   0   0   0   0   0   1   0  
